
===== New CPLEX run =====
Instance: /home/yorig/tuner/mpils-tests/instances/miplib/easy/mas74.mps
Config: /scratch/yorig/mpils-results-grid-seconds-5-watchdog/easy/8proc/seed-2/5_mas74_seed-2_20260504_031955/expansion/config_param_CPXPARAM_Network_Pricing_2_iter_5.prm
========================

Selected objective sense:  MINIMIZE
Selected objective  name:  obj
Selected RHS        name:  rhs
Selected bound      name:  bnd
Wall watchdog: enabled factor=1 grace=1 limit=6 seconds
Version identifier: 22.1.2.0 | 2024-11-26 | 0edbb82fd
CPXPARAM_Preprocessing_Dual                      1
CPXPARAM_Threads                                 8
CPXPARAM_Parallel                                1
CPXPARAM_MIP_Cuts_Cliques                        1
CPXPARAM_MIP_Cuts_FlowCovers                     -1
CPXPARAM_MIP_Cuts_Implied                        2
CPXPARAM_MIP_Limits_GomoryCand                   25
CPXPARAM_MIP_Cuts_PathCut                        1
CPXPARAM_MIP_Cuts_MIRCut                         2
CPXPARAM_MIP_Cuts_Disjunctive                    1
CPXPARAM_Emphasis_MIP                            3
CPXPARAM_Barrier_StartAlg                        4
CPXPARAM_Network_Pricing                         2
CPXPARAM_Preprocessing_Fill                      2
CPXPARAM_MIP_Strategy_RINSHeur                   -1
CPXPARAM_TimeLimit                               5
CPXPARAM_MIP_Limits_CutsFactor                   1
Found incumbent of value 157344.610330 after 0.00 sec. (0.02 ticks)
Tried aggregator 1 time.
MIP Presolve eliminated 0 rows and 3 columns.
Reduced MIP has 13 rows, 148 columns, and 1682 nonzeros.
Reduced MIP has 145 binaries, 2 generals, 0 SOSs, and 0 indicators.
Presolve time = 0.00 sec. (0.84 ticks)
Probing time = 0.00 sec. (0.09 ticks)
Tried aggregator 1 time.
Detecting symmetries...
Reduced MIP has 13 rows, 148 columns, and 1682 nonzeros.
Reduced MIP has 145 binaries, 2 generals, 0 SOSs, and 0 indicators.
Presolve time = 0.00 sec. (0.79 ticks)
Probing time = 0.00 sec. (0.09 ticks)
MIP emphasis: best bound.
MIP search method: dynamic search.
Parallel mode: deterministic, using up to 8 threads.
Root relaxation solution time = 0.00 sec. (2.98 ticks)

        Nodes                                         Cuts/
   Node  Left     Objective  IInf  Best Integer    Best Bound    ItCnt     Gap

*     0+    0                       157344.6103        0.0000           100.00%
*     0+    0                        51840.4943        0.0000           100.00%
      0     0    10482.7953    12    51840.4943    10482.7953      113   79.78%
*     0+    0                        19197.4680    10482.7953            45.39%
*     0+    0                        15240.3317    10482.7953            31.22%
*     0+    0                        14372.8713    10482.7953            27.07%
Detecting symmetries...
      0     2    10482.7953    12    14372.8713    10513.0180      113   26.86%
Elapsed time = 0.01 sec. (9.25 ticks, tree = 0.02 MB, solutions = 5)
*     5+    1                        13279.7434    10526.8584            20.73%
*    20+    7                        12915.1000    10526.8584            18.49%
*   408+  281                        12722.7434    10637.5738            16.39%
*  1008+  667                        12536.2311    10655.9893            15.00%
*  1061+  637                        12517.9319    10700.0198            14.52%

Performing restart 1

Repeating presolve.
Tried aggregator 1 time.
MIP Presolve eliminated 0 rows and 33 columns.
Reduced MIP has 13 rows, 115 columns, and 1256 nonzeros.
Reduced MIP has 112 binaries, 2 generals, 0 SOSs, and 0 indicators.
Presolve time = 0.00 sec. (0.45 ticks)
Tried aggregator 1 time.
Reduced MIP has 13 rows, 115 columns, and 1256 nonzeros.
Reduced MIP has 112 binaries, 2 generals, 0 SOSs, and 0 indicators.
Presolve time = 0.00 sec. (0.57 ticks)
Represolve time = 0.00 sec. (1.40 ticks)
*  2548+  111                        12464.1000    10747.9884            13.77%
*  4124+ 1330                        12235.2561    10755.1299            12.10%
*  4890+ 1851                        12180.1000    10779.1377            11.50%
  15539 12605    11102.0746    12    12180.1000    10974.7050    98921    9.90%
* 21415+17607                        12128.1305    11020.4949             9.13%
* 26344+22227                        12039.4680    11045.9626             8.25%
* 27650+23031                        11801.1857    11050.6577             6.36%
  32600 27527    11171.6320    11    11801.1857    11080.4383   205085    6.11%

Performing restart 2

Repeating presolve.
Tried aggregator 1 time.
MIP Presolve eliminated 0 rows and 18 columns.
Reduced MIP has 13 rows, 97 columns, and 1030 nonzeros.
Reduced MIP has 95 binaries, 1 generals, 0 SOSs, and 0 indicators.
Presolve time = 0.00 sec. (0.35 ticks)
Tried aggregator 1 time.
Reduced MIP has 13 rows, 97 columns, and 1030 nonzeros.
Reduced MIP has 95 binaries, 1 generals, 0 SOSs, and 0 indicators.
Presolve time = 0.00 sec. (0.46 ticks)
Represolve time = 0.01 sec. (1.44 ticks)
  51897 14395    11261.8545    10    11801.1857    11101.5044   333639    5.93%
  74247 34110    11200.1649    12    11801.1857    11145.3182   468720    5.56%
  96178 53200    11389.6064    11    11801.1857    11205.7944   602984    5.05%
 117836 72171    11265.4114    12    11801.1857    11245.2188   738667    4.71%
 139427 90196    11421.1691    11    11801.1857    11276.6378   870313    4.44%
 161096 107617        cutoff          11801.1857    11301.4501   997791    4.23%
 182898 125420    11336.6242    12    11801.1857    11323.5062  1130689    4.05%
 267785 189824        cutoff          11801.1857    11388.0117  1636459    3.50%
Elapsed time = 3.41 sec. (3108.77 ticks, tree = 42.08 MB, solutions = 23)
 346211 243711        cutoff          11801.1857    11431.1045  2085458    3.14%

Clique cuts applied:  0
Implied bound cuts applied:  0
Mixed integer rounding cuts applied:  0
Flow path cuts applied:  0
Disjunctive cuts applied:  0
Cone linearizations applied:  0

Root node processing (before b&c):
  Real time             =    0.01 sec. (9.22 ticks)
Parallel b&c, 8 threads:
  Real time             =    4.99 sec. (4422.77 ticks)
  Sync time (average)   =    0.89 sec.
  Wait time (average)   =    0.00 sec.
                          ------------
Total (root+branch&cut) =    5.00 sec. (4431.99 ticks)
Gap: 3.08%
Upper bound: 11801.2
Lower bound: 11437.4
Termination status: Normal
End of CPLEX run. Time: 5.00405 seconds

===== New CPLEX run =====
Instance: /home/yorig/tuner/mpils-tests/instances/miplib/easy/mas74.mps
Config: /scratch/yorig/mpils-results-grid-seconds-5-watchdog/easy/8proc/seed-2/5_mas74_seed-2_20260504_031955/expansion/config_param_CPXPARAM_Network_Pricing_3_iter_5.prm
========================

Selected objective sense:  MINIMIZE
Selected objective  name:  obj
Selected RHS        name:  rhs
Selected bound      name:  bnd
Wall watchdog: enabled factor=1 grace=1 limit=6 seconds
Version identifier: 22.1.2.0 | 2024-11-26 | 0edbb82fd
CPXPARAM_Preprocessing_Dual                      1
CPXPARAM_Threads                                 8
CPXPARAM_Parallel                                1
CPXPARAM_MIP_Cuts_Cliques                        1
CPXPARAM_MIP_Cuts_FlowCovers                     -1
CPXPARAM_MIP_Cuts_Implied                        2
CPXPARAM_MIP_Limits_GomoryCand                   25
CPXPARAM_MIP_Cuts_PathCut                        1
CPXPARAM_MIP_Cuts_MIRCut                         2
CPXPARAM_MIP_Cuts_Disjunctive                    1
CPXPARAM_Emphasis_MIP                            3
CPXPARAM_Barrier_StartAlg                        4
CPXPARAM_Network_Pricing                         3
CPXPARAM_Preprocessing_Fill                      2
CPXPARAM_MIP_Strategy_RINSHeur                   -1
CPXPARAM_TimeLimit                               5
CPXPARAM_MIP_Limits_CutsFactor                   1
Found incumbent of value 157344.610330 after 0.00 sec. (0.02 ticks)
Tried aggregator 1 time.
MIP Presolve eliminated 0 rows and 3 columns.
Reduced MIP has 13 rows, 148 columns, and 1682 nonzeros.
Reduced MIP has 145 binaries, 2 generals, 0 SOSs, and 0 indicators.
Presolve time = 0.00 sec. (0.84 ticks)
Probing time = 0.00 sec. (0.09 ticks)
Tried aggregator 1 time.
Detecting symmetries...
Reduced MIP has 13 rows, 148 columns, and 1682 nonzeros.
Reduced MIP has 145 binaries, 2 generals, 0 SOSs, and 0 indicators.
Presolve time = 0.00 sec. (0.79 ticks)
Probing time = 0.00 sec. (0.09 ticks)
MIP emphasis: best bound.
MIP search method: dynamic search.
Parallel mode: deterministic, using up to 8 threads.
Root relaxation solution time = 0.00 sec. (2.98 ticks)

        Nodes                                         Cuts/
   Node  Left     Objective  IInf  Best Integer    Best Bound    ItCnt     Gap

*     0+    0                       157344.6103        0.0000           100.00%
*     0+    0                        51840.4943        0.0000           100.00%
      0     0    10482.7953    12    51840.4943    10482.7953      113   79.78%
*     0+    0                        19197.4680    10482.7953            45.39%
*     0+    0                        15240.3317    10482.7953            31.22%
*     0+    0                        14372.8713    10482.7953            27.07%
Detecting symmetries...
      0     2    10482.7953    12    14372.8713    10513.0180      113   26.86%
Elapsed time = 0.01 sec. (9.25 ticks, tree = 0.02 MB, solutions = 5)
*     5+    1                        13279.7434    10526.8584            20.73%
*    20+    7                        12915.1000    10526.8584            18.49%
*   408+  281                        12722.7434    10637.5738            16.39%
*  1008+  667                        12536.2311    10655.9893            15.00%
*  1061+  637                        12517.9319    10700.0198            14.52%

Performing restart 1

Repeating presolve.
Tried aggregator 1 time.
MIP Presolve eliminated 0 rows and 33 columns.
Reduced MIP has 13 rows, 115 columns, and 1256 nonzeros.
Reduced MIP has 112 binaries, 2 generals, 0 SOSs, and 0 indicators.
Presolve time = 0.00 sec. (0.45 ticks)
Tried aggregator 1 time.
Reduced MIP has 13 rows, 115 columns, and 1256 nonzeros.
Reduced MIP has 112 binaries, 2 generals, 0 SOSs, and 0 indicators.
Presolve time = 0.00 sec. (0.57 ticks)
Represolve time = 0.00 sec. (1.40 ticks)
*  2548+  111                        12464.1000    10747.9884            13.77%
*  4124+ 1330                        12235.2561    10755.1299            12.10%
*  4890+ 1851                        12180.1000    10779.1377            11.50%
  15539 12605    11102.0746    12    12180.1000    10974.7050    98921    9.90%
* 21415+17607                        12128.1305    11020.4949             9.13%
* 26344+22227                        12039.4680    11045.9626             8.25%
* 27650+23031                        11801.1857    11050.6577             6.36%
  32600 27527    11171.6320    11    11801.1857    11080.4383   205085    6.11%

Performing restart 2

Repeating presolve.
Tried aggregator 1 time.
MIP Presolve eliminated 0 rows and 18 columns.
Reduced MIP has 13 rows, 97 columns, and 1030 nonzeros.
Reduced MIP has 95 binaries, 1 generals, 0 SOSs, and 0 indicators.
Presolve time = 0.00 sec. (0.35 ticks)
Tried aggregator 1 time.
Reduced MIP has 13 rows, 97 columns, and 1030 nonzeros.
Reduced MIP has 95 binaries, 1 generals, 0 SOSs, and 0 indicators.
Presolve time = 0.00 sec. (0.46 ticks)
Represolve time = 0.01 sec. (1.44 ticks)
  51897 14395    11261.8545    10    11801.1857    11101.5044   333639    5.93%
  74247 34110    11200.1649    12    11801.1857    11145.3182   468720    5.56%
  96178 53200    11389.6064    11    11801.1857    11205.7944   602984    5.05%
 117836 72171    11265.4114    12    11801.1857    11245.2188   738667    4.71%
 139427 90196    11421.1691    11    11801.1857    11276.6378   870313    4.44%
 161096 107617        cutoff          11801.1857    11301.4501   997791    4.23%
 182898 125420    11336.6242    12    11801.1857    11323.5062  1130689    4.05%
 267785 189824        cutoff          11801.1857    11388.0117  1636459    3.50%
Elapsed time = 3.38 sec. (3108.77 ticks, tree = 42.08 MB, solutions = 23)
 347495 246142    11692.0150    11    11801.1857    11431.9422  2106093    3.13%

Clique cuts applied:  0
Implied bound cuts applied:  0
Mixed integer rounding cuts applied:  0
Flow path cuts applied:  0
Disjunctive cuts applied:  0
Cone linearizations applied:  0

Root node processing (before b&c):
  Real time             =    0.01 sec. (9.22 ticks)
Parallel b&c, 8 threads:
  Real time             =    4.99 sec. (4418.82 ticks)
  Sync time (average)   =    0.88 sec.
  Wait time (average)   =    0.00 sec.
                          ------------
Total (root+branch&cut) =    5.00 sec. (4428.04 ticks)
Gap: 3.08%
Upper bound: 11801.2
Lower bound: 11437.7
Termination status: Normal
End of CPLEX run. Time: 5.00331 seconds
